c --- [ banner ] -------------------------------------------------------------
c 
c CaDiCaL Radically Simplified CDCL SAT Solver
c Copyright (c) 2016-2021 A. Biere, M. Fleury, N. Froleyks
c 
c Version 1.5.2 a5f15211db36c3956764e18194dd5bd63bf3b5e6
c g++ (GCC) 9.3.0 -Wall -Wextra -O3 -DNDEBUG
c Fri Oct 21 01:27:37 EDT 2022 Linux gra-login3 3.10.0-1160.66.1.el7.x86_64 x86_64
c 
c --- [ limit ] --------------------------------------------------------------
c 
c setting conflict limit to 200000 conflicts (due to '200000')
c 
c --- [ parsing input ] ------------------------------------------------------
c 
c reading DIMACS file from '33.cubes4220.adj'
c opening file to read '33.cubes4220.adj'
c found 'p cnf 6160 1595476' header
c parsed 1595476 clauses in 19.23 seconds process time
c closing file '33.cubes4220.adj'
c after reading 1457566779 bytes 1390.0 MB
c 
c --- [ options ] ------------------------------------------------------------
c 
c all options are set to their default value
c 
c --- [ solving ] ------------------------------------------------------------
c 
c time measured in process time since initialization
c 
c  seconds    reductions  redundant   irredundant
c          MB     restarts       trail       variables
c            level   conflicts       glue         remaining
c 
c * 19.23 1379  0 0   0    0    0  0% 0 1595422 2366 38%
c { 20.15 1424  0 0   0    0    0  0% 0 1595422 2366 38%
c i 20.45 1436 1174 0   0    4    3 37% 1 1595422 2347 38%
c i 21.13 1457 396 0   0   51   47 24% 2 1595422 2290 37%
c i 21.37 1468 386 0   0   53   48 24% 2 1595422 2289 37%
c i 21.60 1474 377 0   1   55   49 24% 3 1595422 2260 37%
c i 22.64 1492 323 0   5   79   71 25% 6 1595422 2239 36%
c i 22.64 1492 318 0   5   80   71 25% 6 1595422 2229 36%
c i 22.87 1495 295 0   7   90   77 25% 8 1595422 2228 36%
c i 23.07 1496 287 0   8   93   79 25% 8 1595422 2227 36%
c i 24.19 1503 250 0  15  116   98 25% 10 1595422 2226 36%
c i 24.23 1503 248 0  15  117   98 25% 10 1595422 2225 36%
c i 24.26 1505 246 0  16  118   98 25% 10 1595422 2224 36%
c i 24.27 1505 244 0  16  119   98 25% 10 1595422 2223 36%
c i 24.41 1505 238 0  17  124  100 25% 9 1595422 2220 36%
c i 24.52 1505 232 0  19  129  103 25% 11 1595422 2218 36%
c i 24.53 1505 230 0  19  130  103 25% 11 1595422 2217 36%
c i 24.57 1505 229 0  20  131  103 25% 11 1595422 2216 36%
c i 24.87 1506 216 0  23  144  115 25% 12 1595422 2215 36%
c i 25.49 1511 189 0  31  174  140 26% 13 1595422 2214 36%
c 
c  seconds     reductions  redundant    irredundant
c          MB      restarts       trail        variables
c             level   conflicts       glue          remaining
c 
c i 25.70 1512 173 0  37  196  160 26% 14 1595422 2213 36%
c i 26.19 1513 149 0  48  249  204 26% 14 1595422 2210 36%
c i 26.37 1514 143 0  53  270  218 26% 16 1595422 2200 36%
c i 26.38 1514 142 0  53  271  218 26% 16 1595422 2199 36%
c i 26.63 1515 136 0  58  290  235 26% 16 1595422 2198 36%
c i 26.71 1515 133 0  60  298  242 26% 17 1595422 2197 36%
c - 30.38 1425 133 1  61  300  233 26% 17 243055 2197 36%
c i 30.94 1383 127 1  70  340  268 26% 20 243055 2196 36%
c i 31.01 1383 128 1  72  347  274 26% 21 243055 2195 36%
c i 31.07 1383 127 1  75  360  286 26% 22 243055 2194 36%
c i 31.21 1383 123 1  80  377  302 27% 22 243055 2193 36%
c i 31.37 1383 121 1  85  393  316 27% 22 243055 2192 36%
c i 31.50 1383 121 1  89  407  327 27% 23 243055 2191 36%
c i 31.50 1383 121 1  89  408  327 27% 23 243055 2190 36%
c i 31.61 1383 120 1  92  419  334 27% 23 243055 2189 36%
c i 31.63 1383 120 1  92  420  334 27% 23 243055 2188 36%
c i 31.68 1383 118 1  96  431  343 27% 23 243055 2187 36%
c i 31.77 1383 118 1  99  442  352 27% 24 243055 2186 35%
c i 32.00 1383 105 1 103  521  419 27% 22 243055 2185 35%
c i 32.02 1383 103 1 103  534  425 27% 21 243055 2184 35%
c 
c  seconds    reductions  redundant   irredundant
c          MB     restarts       trail       variables
c            level   conflicts       glue         remaining
c 
c i 32.18 1383 92 1 103  610  485 28% 20 243055 2183 35%
c i 32.20 1383 91 1 103  624  496 28% 20 243055 2182 35%
c i 32.24 1383 83 1 103  695  554 28% 20 243055 2181 35%
c i 32.29 1383 73 1 103  820  644 28% 19 243055 2180 35%
c i 32.30 1383 73 1 103  822  645 28% 19 243055 2179 35%
c i 32.39 1383 67 1 106  947  734 29% 19 243055 2178 35%
c } 32.44 1383 65 1 106 1000  771 29% 19 243055 2178 35%
c [ 32.44 1383  0 1 106 1000  771  0% 0 243055 2178 35%
c O 32.44 1383 16 1 106 1003  774 27% 15 243055 2178 35%
c i 32.64 1383 15 1 106 1077  837 31% 11 243055 2177 35%
c i 32.65 1383 15 1 106 1081  840 31% 12 243055 2176 35%
c i 32.65 1383 15 1 106 1082  840 31% 12 243055 2175 35%
c i 32.65 1383 15 1 106 1089  843 31% 12 243055 2174 35%
c - 33.06 1473 16 2 106 1131  801 31% 13 242989 2174 35%
c i 33.25 1473 17 2 106 1373  975 32% 14 242989 2173 35%
c i 33.26 1473 17 2 106 1387  983 32% 14 242989 2172 35%
c i 33.26 1473 17 2 106 1388  983 32% 14 242989 2171 35%
c i 33.26 1473 17 2 106 1397  987 32% 14 242989 2170 35%
c i 33.34 1473 16 2 106 1639 1182 32% 13 242989 2169 35%
c i 33.35 1473 16 2 106 1654 1195 32% 13 242989 2168 35%
c 
c  seconds    reductions  redundant   irredundant
c          MB     restarts       trail       variables
c            level   conflicts       glue         remaining
c 
c i 33.37 1473 17 2 106 1691 1220 32% 14 242989 2167 35%
c i 33.38 1473 17 2 106 1711 1233 32% 14 242989 2166 35%
c i 33.67 1473 19 2 107 2266 1591 31% 15 242989 2165 35%
c i 33.67 1473 19 2 107 2272 1595 31% 15 242989 2164 35%
c - 33.98 1471 20 3 107 2378 1279 31% 16 242959 2164 35%
c i 34.23 1471 20 3 107 2422 1307 49% 16 242959 2163 35%
c i 34.25 1471 20 3 107 2440 1320 49% 16 242959 2162 35%
c i 34.45 1471 21 3 107 2821 1562 48% 17 242959 2161 35%
c ] 34.56 1471 21 3 107 3000 1679 48% 18 242959 2161 35%
c { 34.56 1471 65 3 107 3000 1679 82% 19 242959 2161 35%
c F 34.62 1471 65 3 107 3004 1683 82% 19 242959 2161 35%
c i 34.99 1471 62 3 107 3063 1729 80% 18 242959 2160 35%
c i 35.14 1471 61 3 107 3134 1787 78% 18 242959 2159 35%
c i 35.44 1471 63 3 121 3189 1835 76% 19 242959 2158 35%
c i 35.46 1471 63 3 123 3195 1839 75% 19 242959 2157 35%
c i 35.70 1471 64 3 136 3252 1884 74% 20 242959 2155 35%
c i 36.03 1471 66 3 154 3325 1939 72% 21 242959 2154 35%
c i 36.12 1471 66 3 155 3352 1956 71% 21 242959 2153 35%
c i 36.17 1471 67 3 157 3359 1962 71% 21 242959 2152 35%
c i 36.49 1471 65 3 173 3446 2037 69% 22 242959 2151 35%
c 
c  seconds    reductions  redundant   irredundant
c          MB     restarts       trail       variables
c            level   conflicts       glue         remaining
c 
c i 36.58 1471 65 3 173 3467 2055 69% 21 242959 2150 35%
c i 36.62 1471 65 3 173 3486 2070 68% 22 242959 2149 35%
c i 36.74 1471 64 3 176 3529 2111 68% 22 242959 2148 35%
c i 36.77 1471 65 3 177 3533 2114 68% 22 242959 2147 35%
c i 36.78 1471 65 3 178 3534 2114 68% 22 242959 2146 35%
c i 37.50 1471 64 3 217 3724 2282 65% 23 242959 2145 35%
c - 38.56 1384 61 4 254 4040 1894 62% 24 242906 2145 35%
c i 38.62 1384 61 4 256 4057 1907 62% 24 242906 2144 35%
c i 38.67 1384 60 4 256 4084 1931 62% 24 242906 2143 35%
c i 38.68 1384 60 4 256 4101 1943 61% 24 242906 2142 35%
c i 38.82 1384 58 4 256 4288 2076 60% 23 242906 2141 35%
c i 38.83 1384 57 4 256 4318 2101 60% 23 242906 2140 35%
c d 39.61 1384 51 4 281 5002 2613 57% 23 229447 2132 35%
c 2 39.65 1385 51 4 281 5002 3494 57% 23 229437 2130 35%
c p 43.80 1385 51 4 281 5002 6287 57% 23 229437 2081 34%
c d 44.12 1385 51 4 281 5002 6164 57% 23 214704 2075 34%
c # 44.59 1385 44 4 285 6005 6927 54% 22 214704 2075 34%
c - 44.84 1386 44 5 287 6120 2548 54% 22 214704 2075 34%
c } 45.14 1386 38 5 287 7001 3061 53% 20 214704 2075 34%
c [ 45.14 1386 21 5 287 7001 3061 48% 18 214704 2075 34%
c 
c  seconds    reductions  redundant   irredundant
c          MB     restarts       trail       variables
c            level   conflicts       glue         remaining
c 
c - 45.72 1386 23 6 288 8520 2638 49% 19 214704 2075 34%
c I 46.20 1386 24 6 289 10006 3580 49% 20 214704 2075 34%
c - 46.95 1386 30 7 291 11316 3282 48% 24 214704 2075 34%
c ] 48.24 1386 33 7 292 13932 5051 48% 27 214704 2075 34%
c 1 48.24 1386 33 7 292 13932 5051 48% 27 214704 2075 34%
c 
c --- [ writing output ] -----------------------------------------------------
c 
c writing simplified CNF to DIMACS file 'simp/33.cubes4220.adj.simp1'
c * 48.24 1386 33 7 292 13932 5051 48% 27 214704 2075 34%
c opening file to write 'simp/33.cubes4220.adj.simp1'
c writing 'p cnf 6160 214704' header
c closing file 'simp/33.cubes4220.adj.simp1'
c after writing 80748424 bytes 77.0 MB
c wrote 214704 clauses in 0.57 seconds process time
c 
c --- [ writing extension ] --------------------------------------------------
c 
c writing extension stack to 'simp/33.cubes4220.adj.ext1'
c opening file to write 'simp/33.cubes4220.adj.ext1'
c closing file 'simp/33.cubes4220.adj.ext1'
c after writing 14358 bytes 0.0 MB
c wrote 955 witnesses in 0.00 seconds process time
c 
c --- [ result ] -------------------------------------------------------------
c 
s SATISFIABLE
c 
c --- [ run-time profiling ] -------------------------------------------------
c 
c process time taken by individual solving procedures
c (percentage relative to process time for solving)
c 
c        24.14   83.20% search
c        19.23   66.25% parse
c        18.00   62.03% unstable
c         5.22   18.00% stable
c         4.87   16.79% simplify
c         4.15   14.29% probe
c         0.92    3.18% lucky
c         0.03    0.10% ternary
c   =================================
c        29.02   59.44% solve
c 
c last line shows process time for solving
c (percentage relative to total process time)
c 
c --- [ statistics ] ---------------------------------------------------------
c 
c chronological:              2806        20.14 %  of conflicts
c conflicts:                 13932       480.12    per second
c decisions:                 43694      1505.78    per second
c fixed:                       927        15.05 %  of all variables
c learned:                   13609        97.68 %  per conflict
c learned_lits:            2182822       100.00 %  learned literals
c minimized:                     0         0.00 %  learned literals
c shrunken:                1314585        60.22 %  learned literals
c minishrunken:             173775         7.96 %  learned literals
c propagations:            2110848         0.07 M  per second
c reduced:                    4634        33.26 %  per conflict
c rephased:                      4      3483.00    interval
c restarts:                    292        47.71    interval
c stabilizing:                   2        64.10 %  of conflicts
c substituted:                  14         0.23 %  of all variables
c subsumed:                   3847         0.12 %  of all clauses
c ternary:                     881         0.60 %  of resolved
c weakened:                     28         2.00    average size
c 
c seconds are measured in process time for solving
c 
c --- [ resources ] ----------------------------------------------------------
c 
c total process time since initialization:        48.82    seconds
c total real time since initialization:           48.91    seconds
c maximum resident set size of process:         1560.96    MB
c 
c --- [ shutting down ] ------------------------------------------------------
c 
c exit 10
WARNING! DIMACS header mismatch: wrong number of variables.
============================[ Problem Statistics ]=============================
|                                                                             |
|  Number of variables:          6120                                         |
|  Number of clauses:          214710                                         |
|  Parse time:                   1.06 s                                       |
|  Simplification time:          0.02 s                                       |
|                                                                             |
============================[ Search Statistics ]====================================================
| Conflicts |          ORIGINAL         |          LEARNT          | Num Sols |      SUBGRAPHS      |
|           |    Vars  Clauses Literals |    Limit  Clauses Lit/Cl |          | Canonical Noncanon. |
=====================================================================================================
|       100 |    6022   214710 17615524 |     2000      100     86 |        0 |        13         0 |
|       258 |    6022   214718 17615662 |     2000      258     75 |        0 |        19         8 |
|      1186 |    6022   215421 17625790 |     2000     1186     29 |        0 |       250       711 |
|      2712 |    6022   216610 17641278 |     3601     1713     12 |        0 |       522      1900 |
|      4863 |    6022   218255 17663829 |     5003     2066     10 |        0 |       935      3545 |
|      9422 |    6022   222055 17707448 |     6303     4125     10 |        0 |      1625      7345 |
|     15055 |    6022   226549 17759221 |     7559     6614     10 |        0 |      2378     11839 |
|     29179 |    5962   238963 17892155 |    11199     7575      8 |        0 |      3927     24255 |
=====================================================================================================
Number of solutions   : 0
Canonical subgraphs   : 3963           (31 /sec)
          order  3    : 1              (200000 /sec)
          order  4    : 1              (500000 /sec)
          order  5    : 1              (200000 /sec)
          order  6    : 1              (52632 /sec)
          order  7    : 1              (8772 /sec)
          order  8    : 2              (1364 /sec)
          order  9    : 7              (353 /sec)
          order 10    : 34             (118 /sec)
          order 11    : 152            (37 /sec)
          order 12    : 1134           (27 /sec)
          order 13    : 2528           (33 /sec)
          order 14    : 101            (23 /sec)
          order 15    : 0              (-nan /sec)
          order 16    : 0              (-nan /sec)
          order 17    : 0              (-nan /sec)
          order 18    : 0              (-nan /sec)
          order 19    : 0              (-nan /sec)
          order 20    : 0              (-nan /sec)
          order 21    : 0              (-nan /sec)
          order 22    : 0              (-nan /sec)
Noncanonical subgraphs: 25153          (321 /sec)
          order  3    : 0              (-nan /sec)
          order  4    : 0              (-nan /sec)
          order  5    : 0              (-nan /sec)
          order  6    : 0              (-nan /sec)
          order  7    : 0              (-nan /sec)
          order  8    : 0              (-nan /sec)
          order  9    : 0              (-nan /sec)
          order 10    : 0              (-nan /sec)
          order 11    : 0              (-nan /sec)
          order 12    : 0              (-nan /sec)
          order 13    : 9242           (1694 /sec)
          order 14    : 15677          (217 /sec)
          order 15    : 234            (288 /sec)
          order 16    : 0              (-nan /sec)
          order 17    : 0              (-nan /sec)
          order 18    : 0              (-nan /sec)
          order 19    : 0              (-nan /sec)
          order 20    : 0              (-nan /sec)
          order 21    : 0              (-nan /sec)
Canonicity checking   : 126.996 s
Noncanonicity checking: 78.4701 s
Total canonicity time : 205.466 s
database reductions   : 7
restarts              : 109
conflicts             : 30181          (141 /sec)
decisions             : 66911          (0.00 % random) (312 /sec)
propagations          : 3547696        (16552 /sec)
conflict literals     : 348626         (62.76 % deleted)
actual reward         : 0.035464
Memory used           : 97.00 MB
CPU time              : 214.342 s

UNSATISFIABLE
